10 25
1 2 0
1 3 1
1 4 1
1 5 1
1 6 1
1 7 1
1 8 1
1 9 0
1 10 0
2 3 0
2 4 0
2 5 0
2 6 0
2 7 1
2 8 0
2 9 1
2 10 1
3 4 1
3 5 1
3 6 0
3 7 0
3 8 0
3 9 0
3 10 0
4 5 0
4 6 1
4 7 0
4 8 1
4 9 0
4 10 1
5 6 0
5 7 1
5 8 1
5 9 1
5 10 1
6 7 1
6 8 1
6 9 0
6 10 0
7 8 1
7 9 1
7 10 1
8 9 1
8 10 0
9 10 1
